Warning, line 15067: Name 'r_max' does not exist.
Warning, line 15068: Name 'r_min' does not exist.
Version identifier: 22.1.1.0 | 2022-11-27 | 9160aff4d
CPXPARAM_Threads                                 1
CPXPARAM_MIP_Strategy_Search                     1
CPXPARAM_TimeLimit                               7.9882367999999992
CPXPARAM_MIP_Tolerances_AbsMIPGap                0
CPXPARAM_MIP_Tolerances_MIPGap                   0
Generic callback                                 0xf0
Lazy constraint(s) or lazy constraint/branch callback is present.
    Disabling dual reductions (CPX_PARAM_REDUCE) in presolve.
    Disabling presolve reductions that prevent crushing forms (CPX_PARAM_PREREFORM).
Tried aggregator 2 times.
MIP Presolve eliminated 1612 rows and 33 columns.
MIP Presolve modified 33884 coefficients.
Aggregator did 40 substitutions.
Reduced MIP has 11367 rows, 3249 columns, and 62570 nonzeros.
Reduced MIP has 1480 binaries, 197 generals, 0 SOSs, and 0 indicators.
Presolve time = 0.06 sec. (110.47 ticks)
Probing fixed 15 vars, tightened 46 bounds.
Probing time = 0.08 sec. (172.85 ticks)
Tried aggregator 1 time.
MIP Presolve eliminated 90 rows and 45 columns.
MIP Presolve modified 2301 coefficients.
Reduced MIP has 11277 rows, 3204 columns, and 61658 nonzeros.
Reduced MIP has 1456 binaries, 188 generals, 0 SOSs, and 0 indicators.
Presolve time = 0.03 sec. (61.05 ticks)
Probing time = 0.00 sec. (7.68 ticks)
Clique table members: 33020.
MIP emphasis: balance optimality and feasibility.
MIP search method: traditional branch-and-cut.
Parallel mode: none, using 1 thread.
Root relaxation solution time = 0.80 sec. (1825.67 ticks)

        Nodes                                         Cuts/
   Node  Left     Objective  IInf  Best Integer    Best Bound    ItCnt     Gap         Variable B NodeID Parent  Depth

      0     0        0.0029   300                      0.0029     9009         
      0     0        0.0031   283                    Cuts: 82    10390         
      0     0        0.0040   311                   Cuts: 199    11746         
      0     0        0.0046   352                   Cuts: 141    12576         
      0     0        0.0069   355                   Cuts: 189    13671         
      0     0        0.0071   368                   Cuts: 166    14173         
      0     0        0.0129   365                   Cuts: 178    15255         
      0     0        0.0131   368                   Cuts: 137    15618         
      0     0        0.0133   371                    Cuts: 87    15858         
      0     0        0.0136   343                   Cuts: 107    16470         
      0     0        0.0137   349                   Cuts: 100    17198         
      0     0        0.0139   341                   Cuts: 137    17759         
      0     0        0.0144   353                    Cuts: 79    18047         
      0     0        0.0148   347                    Cuts: 89    18357         
      0     0        0.0149   346                   Cuts: 120    18528         
      0     0        0.0149   325                    Cuts: 74    18655         
      0     0        0.0149   364                    Cuts: 45    18741         
      0     0        0.0150   366                    Cuts: 62    18837         
      0     2        0.0150   355                      0.0150    18837                                 0             0
Elapsed time = 6.91 sec. (14416.09 ticks, tree = 0.01 MB, solutions = 0)
      2     4        0.0227   350                      0.0150    21060                          X      2      1      2
      3     5        0.0338   272                      0.0150    24218                          X      3      1      2
Advanced basis not built.

GUB cover cuts applied:  4
Cover cuts applied:  1
Implied bound cuts applied:  63
Flow cuts applied:  88
Mixed integer rounding cuts applied:  34
Zero-half cuts applied:  22
Gomory fractional cuts applied:  4

Root node processing (before b&c):
  Real time             =    6.81 sec. (14219.40 ticks)
Sequential b&c:
  Real time             =    1.20 sec. (2490.48 ticks)
                          ------------
Total (root+branch&cut) =    8.02 sec. (16709.88 ticks)
CPLEX Error  1217: No solution exists.
CPLEX Error  1217: No solution exists.
CPLEX Error  1217: No solution exists.

--- ROUND21 RUNNER CAPTURED STDOUT ---
Version identifier: 22.1.1.0 | 2022-11-27 | 9160aff4d
CPXPARAM_Threads                                 1
CPXPARAM_MIP_Strategy_Search                     1
CPXPARAM_TimeLimit                               7.9882367999999992
CPXPARAM_MIP_Tolerances_AbsMIPGap                0
CPXPARAM_MIP_Tolerances_MIPGap                   0
Generic callback                                 0xf0
Tried aggregator 2 times.
MIP Presolve eliminated 1612 rows and 33 columns.
MIP Presolve modified 33884 coefficients.
Aggregator did 40 substitutions.
Reduced MIP has 11367 rows, 3249 columns, and 62570 nonzeros.
Reduced MIP has 1480 binaries, 197 generals, 0 SOSs, and 0 indicators.
Presolve time = 0.06 sec. (110.47 ticks)
Probing fixed 15 vars, tightened 46 bounds.
Probing time = 0.08 sec. (172.85 ticks)
Tried aggregator 1 time.
MIP Presolve eliminated 90 rows and 45 columns.
MIP Presolve modified 2301 coefficients.
Reduced MIP has 11277 rows, 3204 columns, and 61658 nonzeros.
Reduced MIP has 1456 binaries, 188 generals, 0 SOSs, and 0 indicators.
Presolve time = 0.03 sec. (61.05 ticks)
Probing time = 0.00 sec. (7.68 ticks)
Clique table members: 33020.
MIP emphasis: balance optimality and feasibility.
MIP search method: traditional branch-and-cut.
Parallel mode: none, using 1 thread.
Root relaxation solution time = 0.80 sec. (1825.67 ticks)

        Nodes                                         Cuts/
   Node  Left     Objective  IInf  Best Integer    Best Bound    ItCnt     Gap         Variable B NodeID Parent  Depth

      0     0        0.0029   300                      0.0029     9009         
      0     0        0.0031   283                    Cuts: 82    10390         
      0     0        0.0040   311                   Cuts: 199    11746         
      0     0        0.0046   352                   Cuts: 141    12576         
      0     0        0.0069   355                   Cuts: 189    13671         
      0     0        0.0071   368                   Cuts: 166    14173         
      0     0        0.0129   365                   Cuts: 178    15255         
      0     0        0.0131   368                   Cuts: 137    15618         
      0     0        0.0133   371                    Cuts: 87    15858         
      0     0        0.0136   343                   Cuts: 107    16470         
      0     0        0.0137   349                   Cuts: 100    17198         
      0     0        0.0139   341                   Cuts: 137    17759         
      0     0        0.0144   353                    Cuts: 79    18047         
      0     0        0.0148   347                    Cuts: 89    18357         
      0     0        0.0149   346                   Cuts: 120    18528         
      0     0        0.0149   325                    Cuts: 74    18655         
      0     0        0.0149   364                    Cuts: 45    18741         
      0     0        0.0150   366                    Cuts: 62    18837         
      0     2        0.0150   355                      0.0150    18837                                 0             0
Elapsed time = 6.91 sec. (14416.09 ticks, tree = 0.01 MB, solutions = 0)
      2     4        0.0227   350                      0.0150    21060                          X      2      1      2
      3     5        0.0338   272                      0.0150    24218                          X      3      1      2
Advanced basis not built.

GUB cover cuts applied:  4
Cover cuts applied:  1
Implied bound cuts applied:  63
Flow cuts applied:  88
Mixed integer rounding cuts applied:  34
Zero-half cuts applied:  22
Gomory fractional cuts applied:  4

Root node processing (before b&c):
  Real time             =    6.81 sec. (14219.40 ticks)
Sequential b&c:
  Real time             =    1.20 sec. (2490.48 ticks)
                          ------------
Total (root+branch&cut) =    8.02 sec. (16709.88 ticks)
CPLEX Error  1217: No solution exists.
CPLEX Error  1217: No solution exists.
CPLEX Error  1217: No solution exists.
tight_T_seed3101.txt gcap-frontier global_gini_tree_time_limit obj=0.107253 runtime=28.1612 columns=0

--- ROUND21 RUNNER CAPTURED STDERR ---
